\ This file was automatically generated by Zimpl
\ var w1 >= 0;
\ var w2 >= 0;
\ maximize Z :      9*w1 + 19*w2;
\ subto c1:      1*w1 + 0*w2 <= 35;
\ subto c2:      0*w1 + 1*w2 <= 30;
\ subto c3:      2*w1 + 3*w2 <= 60;
\ subto c4:      2*w1 + 1*w2 <= 50;
\ subto c5:      1*w1 + 3*w2 <= 27;
\ subto c6:      2*w1 + 2*w2 <= 22;
\Problem name: pd
Maximize
 Z:  +9 w1 +19 w2
Subject to
 c1_1:
  + w1 <= 35
 c2_1:
  + w2 <= 30
 c3_1:
  +3 w2 +2 w1 <= 60
 c4_1:
  + w2 +2 w1 <= 50
 c5_1:
  +3 w2 + w1 <= 27
 c6_1:
  +2 w2 +2 w1 <= 22
Bounds
 0 <= w1 <= +inf
 0 <= w2 <= +inf
End
